p cnf 460 561
w	1	0.793998
w	2	-1
w	3	-1
w	4	-1
w	5	-1
w	6	-1
w	7	-1
w	8	-1
w	9	-1
w	10	-1
w	11	-1
w	12	-1
w	13	-1
w	14	-1
w	15	-1
w	16	-1
w	17	-1
w	18	-1
w	19	-1
w	20	-1
w	21	-1
w	22	-1
w	23	-1
w	24	-1
w	25	-1
w	26	-1
w	27	-1
w	28	-1
w	29	-1
w	30	-1
w	31	-1
w	32	-1
w	33	-1
w	34	-1
w	35	-1
w	36	-1
w	37	-1
w	38	-1
w	39	-1
w	40	-1
w	41	-1
w	42	-1
w	43	-1
w	44	-1
w	45	-1
w	46	-1
w	47	-1
w	48	-1
w	49	-1
w	50	-1
w	51	-1
w	52	-1
w	53	-1
w	54	-1
w	55	-1
w	56	-1
w	57	-1
w	58	-1
w	59	-1
w	60	-1
w	61	-1
w	62	-1
w	63	-1
w	64	-1
w	65	-1
w	66	-1
w	67	-1
w	68	-1
w	69	-1
w	70	-1
w	71	-1
w	72	-1
w	73	-1
w	74	-1
w	75	-1
w	76	-1
w	77	-1
w	78	-1
w	79	-1
w	80	-1
w	81	-1
w	82	-1
w	83	-1
w	84	-1
w	85	-1
w	86	-1
w	87	-1
w	88	-1
w	89	-1
w	90	-1
w	91	-1
w	92	-1
w	93	-1
w	94	-1
w	95	-1
w	96	-1
w	97	-1
w	98	-1
w	99	-1
w	100	-1
w	103	0.842476
w	104	0.273111
w	109	0.667413
w	110	0.748865
w	111	0.36236
w	112	0.432848
w	113	0.608997
w	114	0.399961
w	115	0.989484
w	116	0.112762
w	117	0.23723
w	118	0.602898
w	119	0.459736
w	120	0.236935
w	141	0.468657
w	142	0.881057
w	143	0.39997
w	144	0.928392
w	149	0.844092
w	150	0.512072
w	151	0.352143
w	152	0.534781
w	153	0.955315
w	154	0.118504
w	155	0.198062
w	156	0.225899
w	159	0.216529
w	160	0.533816
w	161	0.100787
w	162	0.381926
w	167	0.257128
w	168	0.729264
w	169	0.659135
w	170	0.704746
w	175	0.439273
w	176	0.316305
w	177	0.372882
w	178	0.40591
w	183	0.356364
w	184	0.159007
w	185	0.505347
w	186	0.457152
w	187	0.8321
w	188	0.789366
w	189	0.201019
w	190	0.689258
w	191	0.742162
w	192	0.946386
w	193	0.319501
w	194	0.401296
w	195	0.624191
w	196	0.570773
w	197	0.551392
w	198	0.534935
w	199	0.483241
w	200	0.990664
w	201	0.856123
w	202	0.396574
w	203	0.12286
w	204	0.347509
w	229	0.0345954
w	230	0.218303
w	231	0.668443
w	232	0.0113393
w	233	0.145867
w	234	0.445235
w	235	0.455391
w	236	0.668496
w	237	0.848177
w	238	0.454174
w	243	0.372183
w	244	0.0208728
w	245	0.237084
w	246	0.680765
w	251	0.166558
w	252	0.470887
w	253	0.372196
w	254	0.201154
w	255	0.0406395
w	256	0.212493
w	257	0.356489
w	258	0.186507
w	259	0.0137172
w	260	0.641898
w	261	0.326224
w	262	0.861894
w	267	0.491057
w	268	0.795395
w	269	0.779747
w	270	0.728141
w	273	0.45617
w	274	0.993077
w	275	0.232479
w	276	0.132
w	281	0.573282
w	282	0.749045
w	283	0.731343
w	284	0.23101
w	285	0.373241
w	286	0.557233
w	287	0.624656
w	288	0.469313
w	301	0.199906
w	302	0.809678
w	303	0.152586
w	304	0.560695
w	311	0.92222
w	312	0.338698
w	313	0.271319
w	314	0.287672
w	315	0.236046
w	316	0.0763348
w	317	0.633247
w	318	0.69183
w	319	0.439706
w	320	0.875755
w	321	0.720611
w	322	0.4869
w	323	0.236999
w	324	0.527171
w	325	0.8559
w	326	0.885388
w	327	0.665578
w	328	0.0379735
w	329	0.287773
w	330	0.867812
w	331	0.421751
w	332	0.819092
w	333	0.16416
w	334	0.786738
w	335	0.966166
w	336	0.708958
w	337	0.871832
w	338	0.237485
w	339	0.478368
w	340	0.473532
w	341	0.0729641
w	342	0.111615
w	349	0.565393
w	350	0.646605
w	351	0.576356
w	352	0.292471
w	357	0.513885
w	358	0.788732
w	359	0.53222
w	360	0.480051
w	373	0.0219322
w	374	0.441442
w	375	0.14704
w	376	0.636261
w	385	0.804422
w	386	0.144812
w	387	0.371705
w	388	0.138847
w	389	0.244955
w	390	0.672346
w	391	0.642502
w	392	0.426954
w	393	0.267781
w	394	0.830755
w	395	0.416753
w	396	0.665612
w	397	0.894463
w	398	0.858195
w	399	0.530725
w	400	0.879882
w	401	0.139686
w	402	0.516711
w	403	0.465807
w	404	0.0165812
w	405	0.715976
w	406	0.324147
w	407	0.0260784
w	408	0.58654
w	409	0.693961
w	410	0.8305
w	411	0.582486
w	412	0.202206
w	413	0.870198
w	414	0.827442
w	415	0.554401
w	416	0.469944
w	417	0.301506
w	418	0.822183
w	425	0.977012
w	426	0.918649
w	427	0.115935
w	428	0.880575
w	433	0.295144
w	434	0.82298
w	435	0.453129
w	436	0.0264952
w	449	0.586357
w	450	0.667473
w	451	0.789088
w	452	0.466932
w	457	0.0556766
w	458	0.873603
w	459	0.13924
w	460	0.0821719
-1 -2 0
1 2 0
-2 -103 3 0
-2 103 -3 0
2 -104 3 0
2 104 -3 0
-3 -4 0
3 4 0
-4 5 0
4 -5 0
-5 -109 6 0
-5 109 -6 0
5 -110 6 0
5 110 -6 0
-6 -111 7 0
-6 111 -7 0
6 -112 7 0
6 112 -7 0
-7 -113 8 0
-7 113 -8 0
7 -114 8 0
7 114 -8 0
-8 -115 9 0
-8 115 -9 0
8 -116 9 0
8 116 -9 0
-9 -117 10 0
-9 117 -10 0
9 -118 10 0
9 118 -10 0
-1 -119 11 0
-1 119 -11 0
1 -120 11 0
1 120 -11 0
-11 -2 -12 0
-11 2 -12 0
11 -2 -12 0
11 2 12 0
-12 -3 13 0
-12 3 -13 0
12 -3 13 0
12 3 -13 0
-13 -4 -14 0
-13 4 14 0
13 -4 14 0
13 4 -14 0
-14 -5 -15 0
-14 5 15 0
14 -5 -15 0
14 5 -15 0
-15 -6 16 0
-15 6 -16 0
15 -6 16 0
15 6 16 0
-16 -7 -141 17 0
-16 -7 141 -17 0
-16 7 -142 17 0
-16 7 142 -17 0
16 -7 -143 17 0
16 -7 143 -17 0
16 7 -144 17 0
16 7 144 -17 0
-17 -8 18 0
-17 8 18 0
17 -8 -18 0
17 8 18 0
-18 -9 -149 19 0
-18 -9 149 -19 0
-18 9 -150 19 0
-18 9 150 -19 0
18 -9 -151 19 0
18 -9 151 -19 0
18 9 -152 19 0
18 9 152 -19 0
-19 -10 -153 20 0
-19 -10 153 -20 0
-19 10 -154 20 0
-19 10 154 -20 0
19 -10 -155 20 0
19 -10 155 -20 0
19 10 -156 20 0
19 10 156 -20 0
-11 21 0
11 -21 0
-21 -12 -159 22 0
-21 -12 159 -22 0
-21 12 -160 22 0
-21 12 160 -22 0
21 -12 -161 22 0
21 -12 161 -22 0
21 12 -162 22 0
21 12 162 -22 0
-22 -13 23 0
-22 13 -23 0
22 -13 -23 0
22 13 23 0
-23 -14 -167 24 0
-23 -14 167 -24 0
-23 14 -168 24 0
-23 14 168 -24 0
23 -14 -169 24 0
23 -14 169 -24 0
23 14 -170 24 0
23 14 170 -24 0
-24 -15 25 0
-24 15 25 0
24 -15 -25 0
24 15 25 0
-25 -16 -175 26 0
-25 -16 175 -26 0
-25 16 -176 26 0
-25 16 176 -26 0
25 -16 -177 26 0
25 -16 177 -26 0
25 16 -178 26 0
25 16 178 -26 0
-26 -17 -27 0
-26 17 27 0
26 -17 27 0
26 17 -27 0
-27 -18 -183 28 0
-27 -18 183 -28 0
-27 18 -184 28 0
-27 18 184 -28 0
27 -18 -185 28 0
27 -18 185 -28 0
27 18 -186 28 0
27 18 186 -28 0
-28 -19 -187 29 0
-28 -19 187 -29 0
-28 19 -188 29 0
-28 19 188 -29 0
28 -19 -189 29 0
28 -19 189 -29 0
28 19 -190 29 0
28 19 190 -29 0
-29 -20 -191 30 0
-29 -20 191 -30 0
-29 20 -192 30 0
-29 20 192 -30 0
29 -20 -193 30 0
29 -20 193 -30 0
29 20 -194 30 0
29 20 194 -30 0
-21 -195 31 0
-21 195 -31 0
21 -196 31 0
21 196 -31 0
-31 -22 -197 32 0
-31 -22 197 -32 0
-31 22 -198 32 0
-31 22 198 -32 0
31 -22 -199 32 0
31 -22 199 -32 0
31 22 -200 32 0
31 22 200 -32 0
-32 -23 -201 33 0
-32 -23 201 -33 0
-32 23 -202 33 0
-32 23 202 -33 0
32 -23 -203 33 0
32 -23 203 -33 0
32 23 -204 33 0
32 23 204 -33 0
-33 -24 34 0
-33 24 34 0
33 -24 -34 0
33 24 -34 0
-34 -25 -35 0
-34 25 -35 0
34 -25 35 0
34 25 -35 0
-35 -26 36 0
-35 26 36 0
35 -26 -36 0
35 26 -36 0
-36 -27 37 0
-36 27 -37 0
36 -27 -37 0
36 27 -37 0
-37 -28 -38 0
-37 28 38 0
37 -28 -38 0
37 28 -38 0
-38 -29 -39 0
-38 29 39 0
38 -29 -39 0
38 29 39 0
-39 -30 -229 40 0
-39 -30 229 -40 0
-39 30 -230 40 0
-39 30 230 -40 0
39 -30 -231 40 0
39 -30 231 -40 0
39 30 -232 40 0
39 30 232 -40 0
-31 -233 41 0
-31 233 -41 0
31 -234 41 0
31 234 -41 0
-41 -32 -235 42 0
-41 -32 235 -42 0
-41 32 -236 42 0
-41 32 236 -42 0
41 -32 -237 42 0
41 -32 237 -42 0
41 32 -238 42 0
41 32 238 -42 0
-42 -33 43 0
-42 33 -43 0
42 -33 43 0
42 33 43 0
-43 -34 -243 44 0
-43 -34 243 -44 0
-43 34 -244 44 0
-43 34 244 -44 0
43 -34 -245 44 0
43 -34 245 -44 0
43 34 -246 44 0
43 34 246 -44 0
-44 -35 -45 0
-44 35 -45 0
44 -35 -45 0
44 35 45 0
-45 -36 -251 46 0
-45 -36 251 -46 0
-45 36 -252 46 0
-45 36 252 -46 0
45 -36 -253 46 0
45 -36 253 -46 0
45 36 -254 46 0
45 36 254 -46 0
-46 -37 -255 47 0
-46 -37 255 -47 0
-46 37 -256 47 0
-46 37 256 -47 0
46 -37 -257 47 0
46 -37 257 -47 0
46 37 -258 47 0
46 37 258 -47 0
-47 -38 -259 48 0
-47 -38 259 -48 0
-47 38 -260 48 0
-47 38 260 -48 0
47 -38 -261 48 0
47 -38 261 -48 0
47 38 -262 48 0
47 38 262 -48 0
-48 -39 49 0
-48 39 -49 0
48 -39 49 0
48 39 -49 0
-49 -40 -267 50 0
-49 -40 267 -50 0
-49 40 -268 50 0
-49 40 268 -50 0
49 -40 -269 50 0
49 -40 269 -50 0
49 40 -270 50 0
49 40 270 -50 0
-41 51 0
41 -51 0
-51 -42 -273 52 0
-51 -42 273 -52 0
-51 42 -274 52 0
-51 42 274 -52 0
51 -42 -275 52 0
51 -42 275 -52 0
51 42 -276 52 0
51 42 276 -52 0
-52 -43 53 0
-52 43 53 0
52 -43 -53 0
52 43 53 0
-53 -44 -281 54 0
-53 -44 281 -54 0
-53 44 -282 54 0
-53 44 282 -54 0
53 -44 -283 54 0
53 -44 283 -54 0
53 44 -284 54 0
53 44 284 -54 0
-54 -45 -285 55 0
-54 -45 285 -55 0
-54 45 -286 55 0
-54 45 286 -55 0
54 -45 -287 55 0
54 -45 287 -55 0
54 45 -288 55 0
54 45 288 -55 0
-55 -46 56 0
-55 46 56 0
55 -46 -56 0
55 46 -56 0
-56 -47 -57 0
-56 47 57 0
56 -47 -57 0
56 47 -57 0
-57 -48 58 0
-57 48 -58 0
57 -48 58 0
57 48 -58 0
-58 -49 -301 59 0
-58 -49 301 -59 0
-58 49 -302 59 0
-58 49 302 -59 0
58 -49 -303 59 0
58 -49 303 -59 0
58 49 -304 59 0
58 49 304 -59 0
-59 -50 -60 0
-59 50 -60 0
59 -50 60 0
59 50 -60 0
-51 61 0
51 -61 0
-61 -52 -311 62 0
-61 -52 311 -62 0
-61 52 -312 62 0
-61 52 312 -62 0
61 -52 -313 62 0
61 -52 313 -62 0
61 52 -314 62 0
61 52 314 -62 0
-62 -53 -315 63 0
-62 -53 315 -63 0
-62 53 -316 63 0
-62 53 316 -63 0
62 -53 -317 63 0
62 -53 317 -63 0
62 53 -318 63 0
62 53 318 -63 0
-63 -54 -319 64 0
-63 -54 319 -64 0
-63 54 -320 64 0
-63 54 320 -64 0
63 -54 -321 64 0
63 -54 321 -64 0
63 54 -322 64 0
63 54 322 -64 0
-64 -55 -323 65 0
-64 -55 323 -65 0
-64 55 -324 65 0
-64 55 324 -65 0
64 -55 -325 65 0
64 -55 325 -65 0
64 55 -326 65 0
64 55 326 -65 0
-65 -56 -327 66 0
-65 -56 327 -66 0
-65 56 -328 66 0
-65 56 328 -66 0
65 -56 -329 66 0
65 -56 329 -66 0
65 56 -330 66 0
65 56 330 -66 0
-66 -57 -331 67 0
-66 -57 331 -67 0
-66 57 -332 67 0
-66 57 332 -67 0
66 -57 -333 67 0
66 -57 333 -67 0
66 57 -334 67 0
66 57 334 -67 0
-67 -58 -335 68 0
-67 -58 335 -68 0
-67 58 -336 68 0
-67 58 336 -68 0
67 -58 -337 68 0
67 -58 337 -68 0
67 58 -338 68 0
67 58 338 -68 0
-68 -59 -339 69 0
-68 -59 339 -69 0
-68 59 -340 69 0
-68 59 340 -69 0
68 -59 -341 69 0
68 -59 341 -69 0
68 59 -342 69 0
68 59 342 -69 0
-69 -60 -70 0
-69 60 -70 0
69 -60 70 0
69 60 -70 0
-61 -71 0
61 71 0
-71 -62 -349 72 0
-71 -62 349 -72 0
-71 62 -350 72 0
-71 62 350 -72 0
71 -62 -351 72 0
71 -62 351 -72 0
71 62 -352 72 0
71 62 352 -72 0
-72 -63 -73 0
-72 63 73 0
72 -63 -73 0
72 63 -73 0
-73 -64 -357 74 0
-73 -64 357 -74 0
-73 64 -358 74 0
-73 64 358 -74 0
73 -64 -359 74 0
73 -64 359 -74 0
73 64 -360 74 0
73 64 360 -74 0
-74 -65 75 0
-74 65 75 0
74 -65 -75 0
74 65 -75 0
-75 -66 76 0
-75 66 76 0
75 -66 76 0
75 66 -76 0
-76 -67 -77 0
-76 67 77 0
76 -67 -77 0
76 67 -77 0
-77 -68 -373 78 0
-77 -68 373 -78 0
-77 68 -374 78 0
-77 68 374 -78 0
77 -68 -375 78 0
77 -68 375 -78 0
77 68 -376 78 0
77 68 376 -78 0
-78 -69 79 0
-78 69 -79 0
78 -69 79 0
78 69 79 0
-79 -70 80 0
-79 70 80 0
79 -70 -80 0
79 70 80 0
-71 -385 81 0
-71 385 -81 0
71 -386 81 0
71 386 -81 0
-81 -72 -387 82 0
-81 -72 387 -82 0
-81 72 -388 82 0
-81 72 388 -82 0
81 -72 -389 82 0
81 -72 389 -82 0
81 72 -390 82 0
81 72 390 -82 0
-82 -73 -391 83 0
-82 -73 391 -83 0
-82 73 -392 83 0
-82 73 392 -83 0
82 -73 -393 83 0
82 -73 393 -83 0
82 73 -394 83 0
82 73 394 -83 0
-83 -74 -395 84 0
-83 -74 395 -84 0
-83 74 -396 84 0
-83 74 396 -84 0
83 -74 -397 84 0
83 -74 397 -84 0
83 74 -398 84 0
83 74 398 -84 0
-84 -75 -399 85 0
-84 -75 399 -85 0
-84 75 -400 85 0
-84 75 400 -85 0
84 -75 -401 85 0
84 -75 401 -85 0
84 75 -402 85 0
84 75 402 -85 0
-85 -76 -403 86 0
-85 -76 403 -86 0
-85 76 -404 86 0
-85 76 404 -86 0
85 -76 -405 86 0
85 -76 405 -86 0
85 76 -406 86 0
85 76 406 -86 0
-86 -77 -407 87 0
-86 -77 407 -87 0
-86 77 -408 87 0
-86 77 408 -87 0
86 -77 -409 87 0
86 -77 409 -87 0
86 77 -410 87 0
86 77 410 -87 0
-87 -78 -411 88 0
-87 -78 411 -88 0
-87 78 -412 88 0
-87 78 412 -88 0
87 -78 -413 88 0
87 -78 413 -88 0
87 78 -414 88 0
87 78 414 -88 0
-88 -79 -415 89 0
-88 -79 415 -89 0
-88 79 -416 89 0
-88 79 416 -89 0
88 -79 -417 89 0
88 -79 417 -89 0
88 79 -418 89 0
88 79 418 -89 0
-89 -80 90 0
-89 80 90 0
89 -80 -90 0
89 80 90 0
-81 -91 0
81 91 0
-91 -82 -425 92 0
-91 -82 425 -92 0
-91 82 -426 92 0
-91 82 426 -92 0
91 -82 -427 92 0
91 -82 427 -92 0
91 82 -428 92 0
91 82 428 -92 0
-92 -83 -93 0
-92 83 93 0
92 -83 93 0
92 83 93 0
-93 -84 -433 94 0
-93 -84 433 -94 0
-93 84 -434 94 0
-93 84 434 -94 0
93 -84 -435 94 0
93 -84 435 -94 0
93 84 -436 94 0
93 84 436 -94 0
-94 -85 -95 0
-94 85 95 0
94 -85 95 0
94 85 95 0
-95 -86 96 0
-95 86 96 0
95 -86 -96 0
95 86 -96 0
-96 -87 -97 0
-96 87 -97 0
96 -87 97 0
96 87 -97 0
-97 -88 -449 98 0
-97 -88 449 -98 0
-97 88 -450 98 0
-97 88 450 -98 0
97 -88 -451 98 0
97 -88 451 -98 0
97 88 -452 98 0
97 88 452 -98 0
-98 -89 -99 0
-98 89 99 0
98 -89 -99 0
98 89 99 0
-99 -90 -457 100 0
-99 -90 457 -100 0
-99 90 -458 100 0
-99 90 458 -100 0
99 -90 -459 100 0
99 -90 459 -100 0
99 90 -460 100 0
99 90 460 -100 0
100 0
